6 24 4 10
13 5 8 16 19 6 19 11 6 20 8 18 15 6 6 1 11 1 4 3 10 2 11 8 
8.62 3.15 2.36 0.19 8.22 12.32 10.03 6.33 12.75 5.07 14.33 15.75 6.63 10.08 3.84 15.11 4.93 9.25 14.45 8.25 6.51 7.14 11.87 0.37 
5.26 7.93 5.73 5.16 8.5 2.45 8.8 3.28 14.69 8.94 5.89 2.55 0.99 13.63 2.69 5.36 0.16 9.97 13.34 9.34 8.55 15.04 12.55 8.05 
4.01 4.58 10.31 15.2 9.18 15.38 4.94 8.84 11.91 10.31 5.72 14.7 11.72 6.02 5.98 1.14 0.38 2.05 12.26 6.31 4.65 8.12 1.73 3.82 
0.9 2.24 5.01 1.82 0.44 14.39 3.34 10.71 12.41 14.27 14.79 5.49 8.93 13.18 0.4 15.06 2.24 14.47 4.23 6.05 5.35 3.63 3.84 12.47 
8 8 8 8 8 8 8 8 8 8 8 8 8 8 8 8 8 8 8 8 8 8 8 8 
8.1 5.95 3.37 14.29 5.45 2.46 5.14 15.16 15.68 13.49 10.42 5.93 4.28 11.42 2.08 10.55 4.7 9.31 14.59 9.61 2.52 14.74 3.88 5.6 
1 1 1 1 1 1 1 1 1 1 1 1 1 1 1 1 1 1 1 1 1 1 1 1 
1 1 1 1 1 1 1 1 1 1 1 1 1 1 1 1 1 1 1 1 1 1 1 1 
1 1 1 1 1 1 1 1 1 1 1 1 1 1 1 1 1 1 1 1 1 1 1 1 
1 1 1 1 1 1 1 1 1 1 1 1 1 1 1 1 1 1 1 1 1 1 1 1 
1 1 1 1 1 1 1 1 1 1 1 1 1 1 1 1 1 1 1 1 1 1 1 1 
1 1 1 1 1 1 1 1 1 1 1 1 1 1 1 1 1 1 1 1 1 1 1 1 
0.01 0.01 0.01 0.01 0.01 0.01 0.01 0.01 0.01 0.01 0.01 0.01 0.01 0.01 0.01 0.01 0.01 0.01 0.01 0.01 0.01 0.01 0.01 0.01 
0.02 0.02 0.02 0.02 0.02 0.02 0.02 0.02 0.02 0.02 0.02 0.02 0.02 0.02 0.02 0.02 0.02 0.02 0.02 0.02 0.02 0.02 0.02 0.02 
0.03 0.03 0.03 0.03 0.03 0.03 0.03 0.03 0.03 0.03 0.03 0.03 0.03 0.03 0.03 0.03 0.03 0.03 0.03 0.03 0.03 0.03 0.03 0.03 
0.04 0.04 0.04 0.04 0.04 0.04 0.04 0.04 0.04 0.04 0.04 0.04 0.04 0.04 0.04 0.04 0.04 0.04 0.04 0.04 0.04 0.04 0.04 0.04 
0.05 0.05 0.05 0.05 0.05 0.05 0.05 0.05 0.05 0.05 0.05 0.05 0.05 0.05 0.05 0.05 0.05 0.05 0.05 0.05 0.05 0.05 0.05 0.05 
1 1 1 1 1 1 1 1 1 1 1 1 1 1 1 1 1 1 1 1 1 1 1 1 
